data_epoxide
_audit_creation_date               2017-11-10
_audit_creation_method
;
Olex2 1.2-dev
(compiled 2017.10.03 svn.r3461 for OlexSys, GUI svn.r5356)
;
_shelx_SHELXL_version_number       2017/1
_audit_contact_author_address      ?
_audit_contact_author_email        ?
_audit_contact_author_name         ''
_audit_contact_author_phone        ?
_publ_contact_author_id_orcid      ?
_publ_section_references
;
Dolomanov, O.V., Bourhis, L.J., Gildea, R.J, Howard, J.A.K. & Puschmann, H.
 (2009), J. Appl. Cryst. 42, 339-341.
Dolomanov, O.V., Bourhis, L.J., Gildea, R.J, Howard, J.A.K. & Puschmann, H.
 (2009), J. Appl. Cryst. 42, 339-341.
Dolomanov, O.V., Bourhis, L.J., Gildea, R.J, Howard, J.A.K. & Puschmann, H.
 (2009), J. Appl. Cryst. 42, 339-341.
Sheldrick, G.M. (2015). Acta Cryst. C71, 3-8.
Sheldrick, G.M. (2015). Acta Cryst. C71, 3-8.
Sheldrick, G.M. (2015). Acta Cryst. C71, 3-8.
;
_chemical_name_common              ?
_chemical_name_systematic          ?
_chemical_formula_moiety           'C2 H4 O'
_chemical_formula_sum              'C2 H4 O'
_chemical_formula_weight           44.05
_chemical_melting_point            ?
loop_
  _atom_type_symbol
  _atom_type_description
  _atom_type_scat_dispersion_real
  _atom_type_scat_dispersion_imag
  _atom_type_scat_source
 C C 0.0033 0.0016 'International Tables Vol C Tables 4.2.6.8 and 6.1.1.4'
 H H 0.0000 0.0000 'International Tables Vol C Tables 4.2.6.8 and 6.1.1.4'
 O O 0.0106 0.0060 'International Tables Vol C Tables 4.2.6.8 and 6.1.1.4'

_shelx_space_group_comment
;
The symmetry employed for this shelxl refinement is uniquely defined
by the following loop, which should always be used as a source of
symmetry information in preference to the above space-group names.
They are only intended as comments.
;
_space_group_crystal_system        'monoclinic'
_space_group_IT_number             14
_space_group_name_H-M_alt          'P 1 21/n 1'
_space_group_name_Hall             '-P 2yn'
loop_
  _space_group_symop_operation_xyz
 'x, y, z'
 'x+1/2, -y+1/2, z+1/2'
 '-x, -y, -z'
 '-x-1/2, y-1/2, -z-1/2'

_cell_length_a                     4.633(5)
_cell_length_b                     8.4000(10)
_cell_length_c                     6.577(3)
_cell_angle_alpha                  90
_cell_angle_beta                   100.37(6)
_cell_angle_gamma                  90
_cell_volume                       251.8(3)
_cell_formula_units_Z              4
_cell_measurement_reflns_used      ?
_cell_measurement_temperature      293(2)
_cell_measurement_theta_max        ?
_cell_measurement_theta_min        ?
_shelx_estimated_absorpt_T_max     ?
_shelx_estimated_absorpt_T_min     ?
_exptl_absorpt_coefficient_mu      0.092
_exptl_absorpt_correction_T_max    ?
_exptl_absorpt_correction_T_min    ?
_exptl_absorpt_correction_type     ?
_exptl_absorpt_process_details     ?
_exptl_absorpt_special_details     ?
_exptl_crystal_colour              ?
_exptl_crystal_density_diffrn      1.162
_exptl_crystal_density_meas        ?
_exptl_crystal_density_method      ?
_exptl_crystal_description         ?
_exptl_crystal_F_000               96
_exptl_crystal_size_max            ?
_exptl_crystal_size_mid            ?
_exptl_crystal_size_min            ?
_exptl_transmission_factor_max     ?
_exptl_transmission_factor_min     ?
_diffrn_reflns_av_R_equivalents    ?
_diffrn_reflns_av_unetI/netI       0.0412
_diffrn_reflns_Laue_measured_fraction_full  1.000
_diffrn_reflns_Laue_measured_fraction_max  1.000
_diffrn_reflns_limit_h_max         ?
_diffrn_reflns_limit_h_min         ?
_diffrn_reflns_limit_k_max         ?
_diffrn_reflns_limit_k_min         ?
_diffrn_reflns_limit_l_max         ?
_diffrn_reflns_limit_l_min         ?
_diffrn_reflns_number              2081
_diffrn_reflns_point_group_measured_fraction_full  1.000
_diffrn_reflns_point_group_measured_fraction_max  1.000
_diffrn_reflns_theta_full          25.240
_diffrn_reflns_theta_max           44.995
_diffrn_reflns_theta_min           3.975
_diffrn_ambient_temperature        293(2)
_diffrn_detector_area_resol_mean   ?
_diffrn_measured_fraction_theta_full  1.000
_diffrn_measured_fraction_theta_max  1.000
_diffrn_measurement_device_type    ?
_diffrn_measurement_method         ?
_diffrn_radiation_type             MoK\a
_diffrn_radiation_wavelength       0.71068
_diffrn_source                     ?
_reflns_Friedel_coverage           0.000
_reflns_Friedel_fraction_full      .
_reflns_Friedel_fraction_max       .
_reflns_number_gt                  1313
_reflns_number_total               2081
_reflns_special_details
;
 Reflections were merged by SHELXL according to the crystal
 class for the calculation of statistics and refinement.
 
 _reflns_Friedel_fraction is defined as the number of unique
 Friedel pairs measured divided by the number that would be
 possible theoretically, ignoring centric projections and
 systematic absences.
;
_reflns_threshold_expression       'I > 2\s(I)'
_computing_cell_refinement         ?
_computing_data_collection         ?
_computing_data_reduction          ?
_computing_molecular_graphics      'Olex2 (Dolomanov et al., 2009)'
_computing_publication_material    'Olex2 (Dolomanov et al., 2009)'
_computing_structure_refinement    'ShelXL (Sheldrick, 2015)'
_computing_structure_solution      ?
_refine_diff_density_max           0.216
_refine_diff_density_min           -0.210
_refine_diff_density_rms           0.037
_refine_ls_extinction_coef         .
_refine_ls_extinction_method       none
_refine_ls_goodness_of_fit_ref     0.907
_refine_ls_hydrogen_treatment      refall
_refine_ls_matrix_type             full
_refine_ls_number_parameters       44
_refine_ls_number_reflns           2081
_refine_ls_number_restraints       0
_refine_ls_R_factor_all            0.0653
_refine_ls_R_factor_gt             0.0353
_refine_ls_restrained_S_all        0.907
_refine_ls_shift/su_max            0.001
_refine_ls_shift/su_mean           0.000
_refine_ls_structure_factor_coef   Fsqd
_refine_ls_weighting_details      
 'w=1/[\s^2^(Fo^2^)+(0.0607P)^2^] where P=(Fo^2^+2Fc^2^)/3'
_refine_ls_weighting_scheme        calc
_refine_ls_wR_factor_gt            0.0972
_refine_ls_wR_factor_ref           0.1072
_refine_special_details            ?
_olex2_refinement_description
;
;
_atom_sites_solution_hydrogens     difmap
_atom_sites_solution_primary       ?
_atom_sites_solution_secondary     ?
loop_
  _atom_site_label
  _atom_site_type_symbol
  _atom_site_fract_x
  _atom_site_fract_y
  _atom_site_fract_z
  _atom_site_U_iso_or_equiv
  _atom_site_adp_type
  _atom_site_occupancy
  _atom_site_site_symmetry_order
  _atom_site_calc_flag
  _atom_site_refinement_flags_posn
  _atom_site_refinement_flags_adp
  _atom_site_refinement_flags_occupancy
  _atom_site_disorder_assembly
  _atom_site_disorder_group
 O1 O 0.11696(8) 0.83091(4) 0.12413(5) 0.02981(9) Uani 1 1 d . . . . .
 C2 C 0.14829(10) 0.93864(5) 0.29602(7) 0.02874(9) Uani 1 1 d . . . . .
 C3 C -0.13426(11) 0.86470(6) 0.21832(7) 0.03255(10) Uani 1 1 d . . . . .
 H2B H 0.2640(19) 0.8952(9) 0.4272(14) 0.046(2) Uiso 1 1 d . . . . .
 H2A H 0.1680(18) 1.0524(10) 0.2652(13) 0.043(2) Uiso 1 1 d . . . . .
 H3A H -0.289(2) 0.9211(9) 0.1326(15) 0.054(2) Uiso 1 1 d . . . . .
 H3B H -0.198(2) 0.7767(11) 0.2927(15) 0.054(2) Uiso 1 1 d . . . . .

loop_
  _atom_site_aniso_label
  _atom_site_aniso_U_11
  _atom_site_aniso_U_22
  _atom_site_aniso_U_33
  _atom_site_aniso_U_23
  _atom_site_aniso_U_13
  _atom_site_aniso_U_12
 O1 0.03461(17) 0.02647(13) 0.03004(15) -0.00484(10) 0.01032(11) 0.00253(10)
 C2 0.0338(2) 0.02520(15) 0.02728(16) -0.00239(12) 0.00581(13) 0.00077(13)
 C3 0.0316(2) 0.03392(19) 0.0345(2) 0.00001(15) 0.01241(16) -0.00312(15)

_geom_special_details
;
 All esds (except the esd in the dihedral angle between two l.s. planes)
 are estimated using the full covariance matrix.  The cell esds are taken
 into account individually in the estimation of esds in distances, angles
 and torsion angles; correlations between esds in cell parameters are only
 used when they are defined by crystal symmetry.  An approximate (isotropic)
 treatment of cell esds is used for estimating esds involving l.s. planes.
;
loop_
  _geom_bond_atom_site_label_1
  _geom_bond_atom_site_label_2
  _geom_bond_distance
  _geom_bond_site_symmetry_2
  _geom_bond_publ_flag
 O1 C2 1.4349(7) . ?
 O1 C3 1.4418(13) . ?
 C2 C3 1.4559(15) . ?
 C2 H2B 1.000(9) . ?
 C2 H2A 0.985(9) . ?
 C3 H3A 0.953(10) . ?
 C3 H3B 0.961(9) . ?

loop_
  _geom_angle_atom_site_label_1
  _geom_angle_atom_site_label_2
  _geom_angle_atom_site_label_3
  _geom_angle
  _geom_angle_site_symmetry_1
  _geom_angle_site_symmetry_3
  _geom_angle_publ_flag
 C2 O1 C3 60.81(5) . . ?
 O1 C2 C3 59.83(5) . . ?
 O1 C2 H2B 114.4(5) . . ?
 O1 C2 H2A 116.8(5) . . ?
 C3 C2 H2B 117.1(5) . . ?
 C3 C2 H2A 116.9(5) . . ?
 H2B C2 H2A 118.5(7) . . ?
 O1 C3 C2 59.36(6) . . ?
 O1 C3 H3A 114.9(6) . . ?
 O1 C3 H3B 114.3(5) . . ?
 C2 C3 H3A 121.8(6) . . ?
 C2 C3 H3B 119.2(6) . . ?
 H3A C3 H3B 114.7(9) . . ?

_shelx_res_file
;
TITL ethox
    epoxide.res
    created by SHELXL-2017/1 at 10:30:00 on 10-Nov-2017
CELL 0.71068 4.633 8.4 6.577 90 100.37 90
ZERR 4 0.005 0.001 0.003 0 0.06 0
LATT 1
SYMM 0.5+X,0.5-Y,0.5+Z
SFAC C H O
UNIT 8 16 4
L.S. 10
PLAN  10
BOND $H
list 6
fmap 2
acta
REM <olex2.extras>
REM <HklSrc "%.\\epoxide.hkl">
REM </olex2.extras>
WGHT    0.060700
FVAR       1.00207
O1    3    0.116960    0.830909    0.124127    11.00000    0.03461    0.02647 =
         0.03004   -0.00484    0.01032    0.00253
C2    1    0.148287    0.938639    0.296017    11.00000    0.03384    0.02520 =
         0.02728   -0.00239    0.00581    0.00077
C3    1   -0.134264    0.864700    0.218323    11.00000    0.03165    0.03392 =
         0.03448    0.00001    0.01241   -0.00312
H2B   2    0.264046    0.895172    0.427246    11.00000    0.04583
H2A   2    0.168033    1.052431    0.265235    11.00000    0.04295
H3A   2   -0.288680    0.921108    0.132584    11.00000    0.05399
H3B   2   -0.197805    0.776712    0.292678    11.00000    0.05378
HKLF 3
REM  ethox
REM R1 =  0.0353 for    1313 Fo > 4sig(Fo)  and  0.0653 for all    2081 data
REM     44 parameters refined using      0 restraints
END
WGHT      0.0608      0.0000
REM Highest difference peak  0.216,  deepest hole -0.210,  1-sigma level  0.037
Q1    1  -0.0472  0.9222  0.2718  11.00000  0.05    0.22
Q2    1   0.1623  0.7620  0.1714  11.00000  0.05    0.14
Q3    1   0.2915  0.9399  0.3958  11.00000  0.05    0.14
Q4    1   0.1419  1.0037  0.2633  11.00000  0.05    0.12
Q5    1   0.2445  1.0405  0.2405  11.00000  0.05    0.11
Q6    1   0.0234  0.8366  0.0370  11.00000  0.05    0.10
Q7    1  -0.2486  0.9619  0.1246  11.00000  0.05    0.09
Q8    1   0.0641  0.6969  0.1229  11.00000  0.05    0.09
Q9    1   0.3462  0.8189  0.1600  11.00000  0.05    0.09
Q10   1   0.0938  0.9054  0.0591  11.00000  0.05    0.08
;
_shelx_res_checksum                75090
_shelx_hkl_file
;
   2   0   0  8.1710  0.0433
   4   0   0 13.7919  0.0627
   6   0   0  1.5156  0.0686
   8   0   0  1.4033  0.0659
   1   1   0 26.2205  0.5489
   2   1   0  9.7925  0.1353
   3   1   0 12.5750  0.2915
   4   1   0  1.0883  0.0445
   5   1   0  2.5245  0.1809
   6   1   0  0.8219  0.1123
   7   1   0  1.9808  0.2248
   8   1   0  0.1450  0.3768
   9   1   0  0.2871  0.3244
   0   2   0  1.4557  0.0199
   1   2   0  8.8737  0.3194
   2   2   0  3.7648  0.0352
   3   2   0  4.6254  0.0612
   4   2   0  1.3229  0.0526
   5   2   0  0.9824  0.0522
   6   2   0  1.4371  0.0913
   7   2   0  0.1742  0.3114
   8   2   0  0.1557  0.3204
   9   2   0  0.2943  0.3962
   1   3   0 17.6649  0.1630
   2   3   0  2.2979  0.0710
   3   3   0  6.4812  0.2993
   4   3   0  1.6436  0.0906
   5   3   0  3.7714  0.0470
   6   3   0  0.3242  0.2847
   7   3   0  0.9445  0.1122
   8   3   0  0.5747  0.1130
   0   4   0 17.9889  0.0486
   1   4   0  0.6302  0.0446
   2   4   0  0.3505  0.1213
   3   4   0  2.9053  0.0798
   4   4   0  5.1090  0.1334
   5   4   0  1.6012  0.0372
   6   4   0  0.5024  0.1772
   7   4   0  0.8284  0.0732
   8   4   0  0.8047  0.1229
   1   5   0  1.6767  0.0372
   2   5   0  2.1972  0.0449
   3   5   0  0.6533  0.0701
   4   5   0  2.7166  0.0483
   5   5   0  0.9644  0.0722
   6   5   0  0.8223  0.0756
   7   5   0  0.6062  0.0951
   8   5   0  0.7990  0.1984
   0   6   0  6.6075  0.0612
   1   6   0  6.5920  0.1741
   2   6   0  2.2211  0.0242
   3   6   0  3.6308  0.1244
   4   6   0  3.0996  0.0289
   5   6   0  3.1880  0.1058
   6   6   0  1.1062  0.0540
   7   6   0  0.4066  0.2196
   8   6   0  0.4915  0.1874
   1   7   0  2.1083  0.0577
   2   7   0  8.2709  0.0447
   3   7   0  0.5993  0.0897
   4   7   0  0.3429  0.2688
   5   7   0  1.4257  0.0479
   6   7   0  1.7646  0.0704
   7   7   0  0.3291  0.3121
   8   7   0  0.2474  0.4019
   0   8   0  5.0840  0.0514
   1   8   0  1.8423  0.0923
   2   8   0  0.1684  0.3315
   3   8   0  1.4335  0.0397
   4   8   0  1.7028  0.0405
   5   8   0  0.4727  0.1222
   6   8   0  0.1800  0.3758
   7   8   0  0.1469  0.3816
   1   9   0  4.9819  0.1116
   2   9   0  4.0684  0.0515
   3   9   0  3.6470  0.0336
   4   9   0  0.4647  0.1922
   5   9   0  1.4079  0.0435
   6   9   0  0.9420  0.1452
   7   9   0  0.7542  0.1979
   0  10   0  5.1068  0.0591
   1  10   0  5.2145  0.1637
   2  10   0  0.7524  0.1415
   3  10   0  3.1157  0.0743
   4  10   0  2.4955  0.0284
   5  10   0  2.1007  0.1045
   6  10   0  0.5513  0.1176
   7  10   0  0.4030  0.2530
   1  11   0  0.4700  0.1432
   2  11   0  3.8838  0.1573
   3  11   0  1.2952  0.0398
   4  11   0  0.8081  0.0731
   5  11   0  0.4744  0.1392
   6  11   0  0.9493  0.0654
   0  12   0  1.1755  0.0736
   1  12   0  0.5884  0.0751
   2  12   0  0.6211  0.0929
   3  12   0  0.3946  0.2036
   4  12   0  0.6491  0.1113
   5  12   0  0.3767  0.2694
   6  12   0  0.3162  0.3898
   1  13   0  0.6544  0.0689
   2  13   0  1.1546  0.0513
   3  13   0  0.5774  0.1036
   4  13   0  0.4175  0.2255
   5  13   0  0.3993  0.2207
   0  14   0  0.4183  0.2247
   1  14   0  0.4459  0.1437
   2  14   0  0.4355  0.1576
   3  14   0  0.5912  0.1085
   4  14   0  0.4873  0.2084
   1  15   0  0.3651  0.2198
   2  15   0  0.6737  0.0950
   3  15   0  0.4876  0.1350
   4  15   0  0.3914  0.2509
   0  16   0  0.6286  0.1493
   1  16   0  0.8269  0.0632
   2  16   0  0.3735  0.2325
  -9   0   1  0.3914  0.2910
  -7   0   1  0.3079  0.4167
  -5   0   1  4.4972  0.0551
  -3   0   1  1.3796  0.0376
  -1   0   1 25.9175  0.0866
   1   0   1  0.4413  0.0653
   3   0   1  7.2382  0.0553
   5   0   1  0.5583  0.1409
   7   0   1  0.3529  0.2919
  -9   1   1  0.2668  0.3901
  -8   1   1  0.4506  0.1564
  -7   1   1  2.3653  0.2327
  -6   1   1  1.1084  0.0964
  -5   1   1  2.7874  0.0605
  -4   1   1  3.6271  0.0332
  -3   1   1 16.2749  0.3147
  -2   1   1 11.3946  0.2297
  -1   1   1 18.0627  0.1707
   0   1   1  6.9455  0.1095
   1   1   1 27.3534  0.5180
   2   1   1  7.3682  0.1908
   3   1   1  4.6344  0.1528
   4   1   1  0.1332  0.3265
   5   1   1  2.9560  0.0267
   6   1   1  0.1220  0.3619
   7   1   1  0.7133  0.0839
   8   1   1  0.3584  0.2646
  -9   2   1  0.1903  0.3961
  -8   2   1  1.5912  0.2179
  -7   2   1  0.3609  0.2577
  -6   2   1  2.0531  0.0502
  -5   2   1  0.4349  0.1376
  -4   2   1 11.1888  0.0641
  -3   2   1  2.1057  0.0389
  -2   2   1 10.0972  0.0636
  -1   2   1  1.8111  0.0254
   0   2   1 44.1922  1.0030
   1   2   1 13.5111  0.2305
   2   2   1  3.1519  0.0576
   3   2   1  4.0195  0.0841
   4   2   1  7.2995  0.0468
   5   2   1  2.5093  0.0398
   6   2   1  0.6422  0.2090
   7   2   1  0.6887  0.1298
   8   2   1  0.6652  0.0953
  -9   3   1  0.2630  0.4151
  -8   3   1  0.2546  0.4019
  -7   3   1  1.6137  0.1450
  -6   3   1  0.4837  0.1393
  -5   3   1  1.6009  0.0651
  -4   3   1  2.4896  0.0385
  -3   3   1  5.7880  0.0411
  -2   3   1  0.2050  0.2588
  -1   3   1 15.2030  0.1439
   0   3   1 17.5757  0.1457
   1   3   1  1.6969  0.0422
   2   3   1  2.0706  0.0924
   3   3   1  5.7768  0.1843
   4   3   1  6.2422  0.0567
   5   3   1  0.2325  0.3834
   6   3   1  0.3682  0.2916
   7   3   1  1.3370  0.0464
   8   3   1  0.9545  0.0725
  -8   4   1  0.2937  0.3210
  -7   4   1  0.6480  0.0963
  -6   4   1  0.4030  0.2333
  -5   4   1  0.7476  0.0735
  -4   4   1  1.5806  0.0329
  -3   4   1  3.7244  0.0841
  -2   4   1  6.3290  0.0751
  -1   4   1  2.1978  0.0211
   0   4   1  4.2127  0.0583
   1   4   1  7.3506  0.0772
   2   4   1  9.8821  0.2157
   3   4   1  1.9734  0.6033
   4   4   1  0.9130  0.0542
   5   4   1  2.3583  0.0299
   6   4   1  2.5080  0.0341
   7   4   1  0.4453  0.1657
   8   4   1  0.3157  0.3270
  -8   5   1  0.3970  0.2506
  -7   5   1  0.6283  0.1020
  -6   5   1  1.2528  0.0484
  -5   5   1  1.1694  0.0726
  -4   5   1  1.0507  0.0476
  -3   5   1  4.9128  0.0797
  -2   5   1  4.5256  0.0470
  -1   5   1  0.2998  0.1490
   0   5   1  5.6989  0.0791
   1   5   1 10.5697  0.0649
   2   5   1  3.3228  0.0941
   3   5   1  1.1158  0.0429
   4   5   1  2.0331  0.0313
   5   5   1  2.9849  0.1061
   6   5   1  0.4799  0.1241
   7   5   1  0.3585  0.2554
   8   5   1  0.3168  0.2577
  -8   6   1  0.3939  0.2612
  -7   6   1  0.3547  0.2599
  -6   6   1  0.1299  0.3544
  -5   6   1  0.7660  0.0811
  -4   6   1  0.3962  0.1566
  -3   6   1  2.1619  0.0261
  -2   6   1  0.6208  0.0759
  -1   6   1  6.1039  0.1031
   0   6   1  0.4058  0.0836
   1   6   1  6.0705  0.1470
   2   6   1  0.2848  0.2207
   3   6   1  4.0269  0.0695
   4   6   1  0.7861  0.0699
   5   6   1  2.4689  0.0324
   6   6   1  0.3826  0.1929
   7   6   1  0.7652  0.1033
   8   6   1  0.1498  0.3893
  -8   7   1  0.4666  0.2054
  -7   7   1  0.7919  0.0746
  -6   7   1  1.6795  0.0882
  -5   7   1  0.7634  0.1466
  -4   7   1  0.3562  0.2188
  -3   7   1  4.3949  0.0535
  -2   7   1  6.0152  0.0817
  -1   7   1  0.3398  0.1776
   0   7   1  4.8236  0.0478
   1   7   1  6.5837  0.1760
   2   7   1  5.0516  0.0591
   3   7   1  0.1582  0.3525
   4   7   1  3.5075  0.0329
   5   7   1  1.4404  0.1084
   6   7   1  0.8228  0.0724
   7   7   1  0.3898  0.1997
   8   7   1  0.6881  0.0964
  -8   8   1  0.5258  0.1339
  -7   8   1  0.5920  0.1084
  -6   8   1  0.6057  0.1047
  -5   8   1  3.6903  0.2166
  -4   8   1  3.0073  0.0296
  -3   8   1  4.0585  0.0646
  -2   8   1  2.1632  0.0276
  -1   8   1  7.8747  0.2091
   0   8   1  4.7267  0.0354
   1   8   1  6.3707  0.1686
   2   8   1  2.4953  0.0261
   3   8   1  2.8979  0.0528
   4   8   1  2.1597  0.0340
   5   8   1  2.1197  0.1110
   6   8   1  0.5458  0.1299
   7   8   1  0.1977  0.3192
  -7   9   1  0.3754  0.2305
  -6   9   1  1.8179  0.1205
  -5   9   1  0.3992  0.1961
  -4   9   1  2.2607  0.0345
  -3   9   1  0.4147  0.1634
  -2   9   1  6.6175  0.1203
  -1   9   1  0.9566  0.0792
   0   9   1  2.3453  0.0266
   1   9   1  0.3873  0.2048
   2   9   1  5.1542  0.0545
   3   9   1  1.2184  0.0505
   4   9   1  0.2332  0.3422
   5   9   1  0.2552  0.3616
   6   9   1  0.8291  0.1619
   7   9   1  0.3911  0.2655
  -7  10   1  0.3706  0.2759
  -6  10   1  0.4059  0.1821
  -5  10   1  1.0532  0.0564
  -4  10   1  1.4278  0.0576
  -3  10   1  0.2253  0.3957
  -2  10   1  1.7917  0.0360
  -1  10   1  1.8734  0.0276
   0  10   1  2.5450  0.0609
   1  10   1  0.8469  0.0666
   2  10   1  1.8478  0.0357
   3  10   1  0.6253  0.2699
   4  10   1  0.6846  0.0819
   5  10   1  0.4149  0.1576
   6  10   1  0.4464  0.2074
   7  10   1  0.3603  0.2832
  -6  11   1  0.8575  0.2093
  -5  11   1  0.4710  0.1381
  -4  11   1  0.2376  0.3670
  -3  11   1  2.6813  0.0407
  -2  11   1  2.0208  0.0864
  -1  11   1  1.6374  0.0330
   0  11   1  1.1414  0.0565
   1  11   1  2.7944  0.0950
   2  11   1  1.5491  0.0449
   3  11   1  1.2071  0.0483
   4  11   1  0.8119  0.0742
   5  11   1  0.6338  0.1497
   6  11   1  0.4125  0.2429
  -6  12   1  0.4593  0.1670
  -5  12   1  1.3379  0.0585
  -4  12   1  1.3166  0.0589
  -3  12   1  0.7091  0.0874
  -2  12   1  0.2155  0.3724
  -1  12   1  2.6802  0.0221
   0  12   1  2.4420  0.0476
   1  12   1  0.6173  0.0885
   2  12   1  1.4991  0.0399
   3  12   1  1.6302  0.0755
   4  12   1  1.0739  0.0594
   5  12   1  0.2765  0.3876
   6  12   1  0.6824  0.1113
  -5  13   1  0.4497  0.1845
  -4  13   1  0.4693  0.1566
  -3  13   1  0.3780  0.2306
  -2  13   1  0.6389  0.0865
  -1  13   1  1.8534  0.0606
   0  13   1  0.1909  0.3663
   1  13   1  0.6532  0.0817
   2  13   1  0.5169  0.1133
   3  13   1  2.0146  0.0345
   4  13   1  0.3840  0.2176
   5  13   1  0.6784  0.0972
  -5  14   1  0.2394  0.2844
  -4  14   1  0.4462  0.1591
  -3  14   1  0.8429  0.3290
  -2  14   1  0.7483  0.0790
  -1  14   1  0.7968  0.0586
   0  14   1  0.7863  0.1521
   1  14   1  0.2988  0.2935
   2  14   1  1.3287  0.0487
   3  14   1  0.8243  0.1067
   4  14   1  0.2102  0.3944
  -4  15   1  0.1847  0.3044
  -3  15   1  0.4580  0.1550
  -2  15   1  0.5892  0.1038
  -1  15   1  0.3388  0.2511
   0  15   1  0.9335  0.0938
   1  15   1  0.4687  0.1192
   2  15   1  0.1229  0.3265
   3  15   1  0.4584  0.2000
  -2  16   1  0.5501  0.1280
  -1  16   1  0.2715  0.2895
   0  16   1  0.3960  0.2203
   1  16   1  0.3682  0.2614
   2  16   1  0.6962  0.0822
  -8   0   2  1.8460  0.0543
  -6   0   2  2.9553  0.0409
  -4   0   2 10.5813  0.0612
  -2   0   2 14.2279  0.0468
   0   0   2 30.6092  0.0991
   2   0   2  3.4830  0.0399
   4   0   2  3.5861  0.0442
   6   0   2  0.9044  0.1039
   8   0   2  0.2721  0.4837
  -9   1   2  0.1750  0.4020
  -8   1   2  0.7534  0.1187
  -7   1   2  2.4106  0.1909
  -6   1   2  0.4906  0.2259
  -5   1   2  2.0217  0.0294
  -4   1   2  6.4358  0.0450
  -3   1   2 12.3302  0.1991
  -2   1   2  2.9746  0.0268
  -1   1   2 17.7313  0.1873
   0   1   2 20.6042  0.2576
   1   1   2  7.5867  0.2529
   2   1   2  5.6819  0.2255
   3   1   2  4.7657  0.2218
   4   1   2  4.2026  0.2151
   5   1   2  0.4419  0.1890
   6   1   2  0.9966  0.0521
   7   1   2  0.7392  0.0788
   8   1   2  0.3943  0.2287
  -9   2   2  0.3643  0.2757
  -8   2   2  0.3286  0.3116
  -7   2   2  1.2819  0.0890
  -6   2   2  0.6267  0.1008
  -5   2   2  2.5246  0.0271
  -4   2   2  1.8957  0.0276
  -3   2   2  6.8988  0.0964
  -2   2   2 10.1120  0.0672
  -1   2   2  7.0407  0.1031
   0   2   2  6.3518  0.1444
   1   2   2 15.3153  0.2742
   2   2   2  9.7960  0.2203
   3   2   2  2.0591  0.0737
   4   2   2  1.1028  0.0907
   5   2   2  2.6832  0.1190
   6   2   2  1.6648  0.0362
   7   2   2  0.2295  0.3728
   8   2   2  0.2440  0.4080
  -9   3   2  0.1035  0.3290
  -8   3   2  0.3982  0.2341
  -7   3   2  1.5253  0.1386
  -6   3   2  0.2947  0.3220
  -5   3   2  0.5322  0.1068
  -4   3   2  0.3794  0.1384
  -3   3   2  8.0180  0.0547
  -2   3   2  1.3032  0.0267
  -1   3   2  8.6028  0.1346
   0   3   2  3.3517  0.0695
   1   3   2 11.8326  0.0340
   2   3   2  1.2788  0.0305
   3   3   2  3.7672  0.0352
   4   3   2  1.8642  0.1395
   5   3   2  2.0426  0.0768
   6   3   2  0.1826  0.3708
   7   3   2  0.4101  0.1643
   8   3   2  0.3894  0.2642
  -8   4   2  0.8038  0.0761
  -7   4   2  1.0899  0.0533
  -6   4   2  1.0059  0.0639
  -5   4   2  0.2112  0.3561
  -4   4   2  3.6761  0.0371
  -3   4   2  9.3066  0.0416
  -2   4   2  2.2024  0.0285
  -1   4   2  6.7085  0.1027
   0   4   2  5.0601  0.1123
   1   4   2 16.8319  0.0999
   2   4   2  2.1729  0.0382
   3   4   2  3.5919  0.0307
   4   4   2  1.9366  0.0685
   5   4   2  4.1713  0.1675
   6   4   2  0.1483  0.3594
   7   4   2  0.7566  0.1275
   8   4   2  0.2654  0.3880
  -8   5   2  0.3108  0.3832
  -7   5   2  0.3536  0.2648
  -6   5   2  2.6682  0.0266
  -5   5   2  1.9685  0.0339
  -4   5   2  4.4837  0.0385
  -3   5   2  0.9723  0.0481
  -2   5   2  8.6834  0.0401
  -1   5   2 10.2674  0.1638
   0   5   2 15.2308  0.1590
   1   5   2  4.2189  0.0785
   2   5   2  7.2971  0.1724
   3   5   2  4.6888  0.0361
   4   5   2  6.4981  0.0536
   5   5   2  1.0793  0.0667
   6   5   2  1.0802  0.0544
   7   5   2  0.8765  0.1412
   8   5   2  0.8631  0.1126
  -8   6   2  0.4656  0.1997
  -7   6   2  0.9439  0.1766
  -6   6   2  1.1684  0.0501
  -5   6   2  3.1702  0.0753
  -4   6   2  0.3791  0.1987
  -3   6   2  5.5231  0.0489
  -2   6   2  7.6373  0.1598
  -1   6   2  3.8480  0.0502
   0   6   2  1.8161  0.0306
   1   6   2  7.2767  0.1459
   2   6   2  7.3112  0.0451
   3   6   2  0.2693  0.2856
   4   6   2  0.4695  0.1608
   5   6   2  2.4364  0.0334
   6   6   2  1.6334  0.0388
   7   6   2  0.3254  0.2710
   8   6   2  0.4197  0.1887
  -8   7   2  0.7792  0.0827
  -7   7   2  0.3544  0.2578
  -6   7   2  1.5151  0.0406
  -5   7   2  0.6841  0.2214
  -4   7   2  3.1488  0.0391
  -3   7   2  0.8172  0.1655
  -2   7   2  3.4428  0.0527
  -1   7   2  3.0111  0.0452
   0   7   2  5.1134  0.0659
   1   7   2  2.4358  0.0901
   2   7   2  1.3980  0.0670
   3   7   2  1.4610  0.0484
   4   7   2  0.7541  0.0817
   5   7   2  1.2831  0.0871
   6   7   2  0.8781  0.2911
   7   7   2  0.3102  0.2842
  -8   8   2  0.3645  0.2758
  -7   8   2  0.8112  0.1072
  -6   8   2  0.9285  0.0938
  -5   8   2  1.0252  0.0523
  -4   8   2  1.0555  0.0597
  -3   8   2  3.2577  0.0325
  -2   8   2  2.5399  0.0256
  -1   8   2  2.6681  0.0489
   0   8   2  1.0819  0.0361
   1   8   2  4.4378  0.1810
   2   8   2  1.0879  0.1067
   3   8   2  1.0544  0.1165
   4   8   2  0.6508  0.1447
   5   8   2  1.3487  0.0451
   6   8   2  0.3519  0.2620
   7   8   2  0.4214  0.1907
  -7   9   2  0.9157  0.0678
  -6   9   2  1.4476  0.0975
  -5   9   2  0.4702  0.1795
  -4   9   2  0.4208  0.2138
  -3   9   2  3.6029  0.0331
  -2   9   2  3.8105  0.0696
  -1   9   2  0.4339  0.1218
   0   9   2  1.2375  0.0373
   1   9   2  2.6229  0.0838
   2   9   2  2.4427  0.0293
   3   9   2  0.4781  0.1437
   4   9   2  1.0732  0.0635
   5   9   2  0.2888  0.2647
   6   9   2  0.4158  0.1759
   7   9   2  0.3767  0.2765
  -7  10   2  0.4398  0.2232
  -6  10   2  0.4446  0.1617
  -5  10   2  2.4744  0.1642
  -4  10   2  1.8795  0.1157
  -3  10   2  1.0222  0.0773
  -2  10   2  0.2463  0.3973
  -1  10   2  3.7784  0.0727
   0  10   2  2.8300  0.0396
   1  10   2  1.1983  0.0772
   2  10   2  0.9280  0.0653
   3  10   2  0.8678  0.0609
   4  10   2  0.9065  0.0625
   5  10   2  0.3746  0.2484
   6  10   2  0.4083  0.1967
  -6  11   2  0.4807  0.1531
  -5  11   2  1.0819  0.0590
  -4  11   2  1.4563  0.0772
  -3  11   2  0.2731  0.3470
  -2  11   2  1.8945  0.0393
  -1  11   2  3.5790  0.0562
   0  11   2  0.9343  0.0598
   1  11   2  0.6685  0.0951
   2  11   2  0.8663  0.0588
   3  11   2  2.7383  0.0407
   4  11   2  0.4876  0.1715
   5  11   2  0.3490  0.2742
   6  11   2  0.4302  0.2279
  -6  12   2  0.6482  0.1023
  -5  12   2  0.4071  0.2342
  -4  12   2  0.4944  0.1259
  -3  12   2  0.4615  0.1307
  -2  12   2  2.0789  0.0314
  -1  12   2  0.1456  0.3190
   0  12   2  1.0014  0.0424
   1  12   2  1.2359  0.0427
   2  12   2  2.2668  0.0297
   3  12   2  0.7231  0.0763
   4  12   2  0.6940  0.0869
   5  12   2  0.4851  0.1912
  -5  13   2  0.3792  0.2748
  -4  13   2  0.9598  0.0623
  -3  13   2  0.4966  0.1265
  -2  13   2  0.1850  0.2987
  -1  13   2  0.2369  0.2804
   0  13   2  1.9869  0.0260
   1  13   2  0.3684  0.2324
   2  13   2  0.3131  0.2609
   3  13   2  0.3389  0.2623
   4  13   2  1.1656  0.0625
   5  13   2  0.3320  0.2906
  -5  14   2  0.4109  0.2777
  -4  14   2  0.5005  0.1413
  -3  14   2  0.8116  0.0755
  -2  14   2  1.2880  0.0446
  -1  14   2  0.6036  0.0815
   0  14   2  1.0770  0.0427
   1  14   2  1.2053  0.0472
   2  14   2  1.4821  0.0443
   3  14   2  0.5578  0.1507
   4  14   2  0.6368  0.1614
  -4  15   2  0.2478  0.4624
  -3  15   2  0.3367  0.2831
  -2  15   2  0.6693  0.0965
  -1  15   2  2.0331  0.0269
   0  15   2  0.4455  0.1472
   1  15   2  0.4777  0.1364
   2  15   2  0.4029  0.1896
   3  15   2  1.4902  0.0543
  -2  16   2  0.4381  0.1567
  -1  16   2  0.7772  0.0682
   0  16   2  0.8701  0.0734
   1  16   2  0.2910  0.3687
  -9   0   3  0.1750  0.4781
  -7   0   3  2.0889  0.0447
  -5   0   3  1.4914  0.0508
  -3   0   3  9.4526  0.0567
  -1   0   3  2.6858  0.0380
   1   0   3 13.9161  0.0488
   3   0   3  3.6289  0.0514
   5   0   3  2.5909  0.0425
   7   0   3  0.7739  0.1045
  -9   1   3  0.4346  0.1857
  -8   1   3  0.6837  0.2554
  -7   1   3  1.4476  0.0759
  -6   1   3  0.3355  0.3129
  -5   1   3  0.5464  0.1776
  -4   1   3  2.6228  0.0248
  -3   1   3  4.1203  0.0312
  -2   1   3  3.1991  0.0459
  -1   1   3  3.9974  0.0338
   0   1   3  2.4564  0.0619
   1   1   3  0.1759  0.2602
   2   1   3  3.5275  0.0766
   3   1   3  0.6647  0.0657
   4   1   3  0.6617  0.1071
   5   1   3  1.1497  0.0810
   6   1   3  1.0539  0.0526
   7   1   3  0.3205  0.2506
   8   1   3  0.3624  0.2743
  -9   2   3  0.4155  0.2446
  -8   2   3  1.0224  0.1670
  -7   2   3  1.3650  0.1347
  -6   2   3  1.3348  0.0490
  -5   2   3  0.9039  0.0581
  -4   2   3  3.7955  0.0374
  -3   2   3  8.9159  0.1489
  -2   2   3  0.7592  0.1026
  -1   2   3  1.6856  0.0585
   0   2   3  0.2460  0.1548
   1   2   3 15.3543  0.3301
   2   2   3  1.4690  0.0289
   3   2   3  1.1408  0.1152
   4   2   3  0.4028  0.1452
   5   2   3  2.4726  0.0862
   6   2   3  1.2147  0.0874
   7   2   3  0.2852  0.3117
   8   2   3  0.4198  0.1887
  -9   3   3  0.2478  0.4134
  -8   3   3  0.9154  0.1776
  -7   3   3  1.0974  0.0547
  -6   3   3  3.8635  0.0350
  -5   3   3  3.5725  0.0339
  -4   3   3  6.1847  0.0478
  -3   3   3  2.2553  0.0258
  -2   3   3 15.1611  0.2216
  -1   3   3 13.7699  0.1281
   0   3   3 15.8253  0.3969
   1   3   3  2.4424  0.0305
   2   3   3 11.2569  0.3170
   3   3   3  5.3318  0.1419
   4   3   3  4.7271  0.2889
   5   3   3  1.5466  0.1177
   6   3   3  1.5801  0.0392
   7   3   3  0.6510  0.1060
   8   3   3  0.6113  0.1943
  -8   4   3  0.5266  0.1259
  -7   4   3  1.6519  0.0591
  -6   4   3  1.4851  0.0915
  -5   4   3  1.3830  0.0439
  -4   4   3  5.1028  0.0821
  -3   4   3  7.9218  0.0520
  -2   4   3 10.6964  0.0992
  -1   4   3  2.5935  0.0212
   0   4   3  8.6662  0.2122
   1   4   3 10.5059  0.1295
   2   4   3  6.9521  0.0445
   3   4   3  0.3980  0.1800
   4   4   3  2.2165  0.0576
   5   4   3  2.5683  0.1776
   6   4   3  1.4584  0.0425
   7   4   3  0.2053  0.3939
   8   4   3  0.2940  0.3958
  -8   5   3  0.2595  0.4009
  -7   5   3  0.2441  0.3771
  -6   5   3  0.3965  0.2014
  -5   5   3  2.1708  0.1108
  -4   5   3  2.3191  0.0380
  -3   5   3  0.2227  0.3150
  -2   5   3  1.3734  0.0820
  -1   5   3  8.5444  0.0852
   0   5   3  3.8418  0.1189
   1   5   3  1.0339  0.0418
   2   5   3  2.3320  0.0238
   3   5   3  3.4452  0.0446
   4   5   3  0.9247  0.0628
   5   5   3  0.7972  0.0840
   6   5   3  0.3104  0.2943
   7   5   3  0.1899  0.3964
   8   5   3  0.3277  0.2924
  -8   6   3  0.4888  0.1902
  -7   6   3  1.8349  0.0374
  -6   6   3  0.4885  0.1226
  -5   6   3  0.4706  0.1907
  -4   6   3  0.2186  0.3732
  -3   6   3  8.9320  0.0492
  -2   6   3  1.0873  0.0453
  -1   6   3  0.9789  0.3367
   0   6   3  1.0916  0.0422
   1   6   3 11.1038  0.1999
   2   6   3  0.3000  0.2511
   3   6   3  0.4212  0.1435
   4   6   3  1.0104  0.0658
   5   6   3  2.5830  0.0472
   6   6   3  0.1622  0.3726
   7   6   3  0.1217  0.3730
  -8   7   3  0.4470  0.1701
  -7   7   3  0.3397  0.2713
  -6   7   3  2.8522  0.0890
  -5   7   3  1.8792  0.0465
  -4   7   3  2.5326  0.0669
  -3   7   3  0.8042  0.0735
  -2   7   3  7.5814  0.1367
  -1   7   3  5.1452  0.0570
   0   7   3  6.5931  0.1240
   1   7   3  0.6255  0.0778
   2   7   3  4.7190  0.0822
   3   7   3  2.5340  0.0588
   4   7   3  3.4836  0.0544
   5   7   3  0.5298  0.1137
   6   7   3  0.4396  0.1606
   7   7   3  0.3846  0.2676
  -8   8   3  0.3618  0.2830
  -7   8   3  0.4826  0.2139
  -6   8   3  0.6846  0.0858
  -5   8   3  2.3102  0.0762
  -4   8   3  0.4679  0.1424
  -3   8   3  2.5842  0.0451
  -2   8   3  1.6839  0.0342
  -1   8   3  1.4675  0.0301
   0   8   3  1.5223  0.0288
   1   8   3  3.2654  0.1218
   2   8   3  0.7464  0.0754
   3   8   3  1.5919  0.0402
   4   8   3  0.7250  0.1384
   5   8   3  0.9793  0.1221
   6   8   3  0.0732  0.3127
   7   8   3  0.7265  0.0901
  -7   9   3  0.2447  0.4087
  -6   9   3  0.5506  0.1114
  -5   9   3  0.8391  0.0680
  -4   9   3  1.5049  0.0816
  -3   9   3  0.2737  0.3929
  -2   9   3  0.5076  0.1168
  -1   9   3  1.8299  0.0276
   0   9   3  0.3495  0.2181
   1   9   3  0.2697  0.3649
   2   9   3  1.0910  0.0564
   3   9   3  1.3190  0.0535
   4   9   3  0.8351  0.0662
   5   9   3  0.3309  0.2642
   6   9   3  0.6890  0.1366
  -7  10   3  0.5395  0.1802
  -6  10   3  0.9281  0.0644
  -5  10   3  0.4335  0.1505
  -4  10   3  1.0496  0.0797
  -3  10   3  0.7893  0.2459
  -2  10   3  1.8675  0.0368
  -1  10   3  0.4868  0.1543
   0  10   3  2.4009  0.0599
   1  10   3  0.4604  0.1552
   2  10   3  1.0036  0.0637
   3  10   3  0.8757  0.0607
   4  10   3  1.4454  0.0402
   5  10   3  0.3988  0.2349
   6  10   3  0.2890  0.4052
  -6  11   3  0.2587  0.3952
  -5  11   3  0.2196  0.3887
  -4  11   3  0.6735  0.0806
  -3  11   3  0.2649  0.3643
  -2  11   3  0.4493  0.1274
  -1  11   3  0.2280  0.3963
   0  11   3  1.0174  0.0519
   1  11   3  0.7612  0.0666
   2  11   3  0.4163  0.1616
   3  11   3  0.1879  0.3560
   4  11   3  0.1796  0.3737
   5  11   3  0.6569  0.1354
   6  11   3  0.3654  0.2829
  -6  12   3  0.3006  0.3285
  -5  12   3  0.4158  0.1881
  -4  12   3  1.3929  0.0603
  -3  12   3  1.1034  0.0537
  -2  12   3  1.7674  0.0493
  -1  12   3  0.2769  0.3414
   0  12   3  1.8311  0.0263
   1  12   3  1.1430  0.0665
   2  12   3  1.9991  0.0319
   3  12   3  0.4579  0.1459
   4  12   3  0.5582  0.1159
   5  12   3  0.4841  0.1694
  -5  13   3  1.6542  0.0622
  -4  13   3  0.3877  0.2571
  -3  13   3  0.5358  0.1837
  -2  13   3  0.2458  0.3798
  -1  13   3  3.7286  0.0940
   0  13   3  0.3130  0.2437
   1  13   3  0.2299  0.3734
   2  13   3  0.3889  0.2019
   3  13   3  2.2959  0.0317
   4  13   3  0.2257  0.3917
  -4  14   3  1.4444  0.0452
  -3  14   3  0.8287  0.0816
  -2  14   3  1.1204  0.0524
  -1  14   3  0.5624  0.1127
   0  14   3  1.7116  0.0305
   1  14   3  0.9778  0.0602
   2  14   3  1.3536  0.0466
   3  14   3  0.2607  0.4116
   4  14   3  0.4245  0.2116
  -3  15   3  0.4512  0.1915
  -2  15   3  0.7801  0.0763
  -1  15   3  0.2109  0.3791
   0  15   3  1.0147  0.0515
   1  15   3  0.2486  0.3653
   2  15   3  0.6719  0.0850
   3  15   3  0.2478  0.3889
  -1  16   3  0.4290  0.1521
   0  16   3  0.6302  0.1415
   1  16   3  0.7051  0.1463
  -8   0   4  0.6538  0.1329
  -6   0   4  0.7555  0.1191
  -4   0   4  1.3833  0.0694
  -2   0   4  8.8693  0.0537
   0   0   4  4.0190  0.0564
   2   0   4  9.7036  0.0588
   4   0   4  2.0802  0.0441
   6   0   4  2.0017  0.0480
   8   0   4  0.3503  0.3503
  -9   1   4  0.4469  0.2181
  -8   1   4  0.6667  0.1591
  -7   1   4  0.7440  0.1050
  -6   1   4  3.0387  0.0812
  -5   1   4  2.8029  0.0261
  -4   1   4  1.6811  0.0309
  -3   1   4  1.1139  0.2436
  -2   1   4 12.4479  0.0813
  -1   1   4  8.2235  0.0348
   0   1   4  1.2142  0.0293
   1   1   4  6.2028  0.0575
   2   1   4  8.4256  0.1610
   3   1   4  3.7108  0.0873
   4   1   4  0.2299  0.3677
   5   1   4  2.6373  0.0308
   6   1   4  1.2841  0.0439
   7   1   4  0.4182  0.2203
   8   1   4  0.4124  0.2479
  -9   2   4  0.3011  0.3290
  -8   2   4  0.7964  0.0759
  -7   2   4  1.8339  0.0594
  -6   2   4  0.5261  0.1340
  -5   2   4  2.0589  0.0324
  -4   2   4  5.0503  0.0586
  -3   2   4  6.9278  0.0651
  -2   2   4  4.8337  0.0419
  -1   2   4  9.2445  0.2360
   0   2   4  7.5217  0.1070
   1   2   4  7.1643  0.1164
   2   2   4  2.7994  0.0907
   3   2   4  4.5653  0.0611
   4   2   4  0.9726  0.0571
   5   2   4  1.7639  0.0892
   6   2   4  0.3089  0.3165
   7   2   4  0.6570  0.1395
   8   2   4  0.4471  0.2181
  -8   3   4  0.4852  0.1837
  -7   3   4  0.6042  0.1701
  -6   3   4  0.6808  0.1363
  -5   3   4  1.5152  0.0401
  -4   3   4  1.3144  0.0401
  -3   3   4  4.2606  0.0345
  -2   3   4  0.4025  0.1540
  -1   3   4  6.0424  0.0324
   0   3   4  2.4844  0.0901
   1   3   4  5.2529  0.0916
   2   3   4  0.3244  0.2266
   3   3   4  0.9025  0.0946
   4   3   4  1.2545  0.1225
   5   3   4  1.2272  0.0573
   6   3   4  0.4990  0.1330
   7   3   4  0.3332  0.3159
  -8   4   4  0.3134  0.3246
  -7   4   4  2.2939  0.1732
  -6   4   4  0.8230  0.0653
  -5   4   4  2.2946  0.0315
  -4   4   4  0.7322  0.1026
  -3   4   4  9.5708  0.0452
  -2   4   4  4.0035  0.0676
  -1   4   4  3.8633  0.0445
   0   4   4  0.7539  0.1221
   1   4   4 10.1526  0.1290
   2   4   4  2.9799  0.0546
   3   4   4  0.4118  0.1403
   4   4   4  0.3401  0.2836
   5   4   4  1.7403  0.0613
   6   4   4  0.7366  0.0844
   7   4   4  0.2429  0.3946
  -8   5   4  0.5991  0.1099
  -7   5   4  0.6111  0.1010
  -6   5   4  4.3003  0.0427
  -5   5   4  3.3244  0.0394
  -4   5   4  3.5058  0.0305
  -3   5   4  1.7001  0.0316
  -2   5   4 11.1185  0.1559
  -1   5   4  7.3382  0.0350
   0   5   4  7.0326  0.1221
   1   5   4  1.6465  0.0385
   2   5   4  6.0288  0.1592
   3   5   4  2.8673  0.1269
   4   5   4  2.9909  0.1250
   5   5   4  0.1011  0.3024
   6   5   4  0.6836  0.0839
   7   5   4  0.3121  0.2861
  -8   6   4  0.7663  0.0907
  -7   6   4  1.2137  0.0524
  -6   6   4  0.4353  0.1947
  -5   6   4  1.5100  0.0443
  -4   6   4  4.2072  0.0691
  -3   6   4  4.8970  0.0968
  -2   6   4  1.7663  0.0606
  -1   6   4  0.6968  0.0638
   0   6   4  6.1080  0.1042
   1   6   4  4.9336  0.2032
   2   6   4  0.7966  0.0624
   3   6   4  2.0554  0.0738
   4   6   4  1.3600  0.0495
   5   6   4  1.2816  0.0451
   6   6   4  0.1703  0.3126
   7   6   4  0.4427  0.1788
  -8   7   4  0.3156  0.2893
  -7   7   4  0.4854  0.1806
  -6   7   4  0.3759  0.1811
  -5   7   4  0.5448  0.1484
  -4   7   4  0.2464  0.3941
  -3   7   4  1.2683  0.0438
  -2   7   4  2.2295  0.0282
  -1   7   4  1.3283  0.0394
   0   7   4  2.1933  0.1020
   1   7   4  0.4601  0.1184
   2   7   4  2.6769  0.0278
   3   7   4  0.3686  0.2629
   4   7   4  1.4984  0.0368
   5   7   4  0.4251  0.1733
   6   7   4  0.6511  0.1476
   7   7   4  0.6046  0.2328
  -7   8   4  0.9208  0.0665
  -6   8   4  0.5663  0.1037
  -5   8   4  0.9961  0.0542
  -4   8   4  1.2213  0.0672
  -3   8   4  2.9952  0.0392
  -2   8   4  0.5649  0.1230
  -1   8   4  2.3511  0.0283
   0   8   4  2.7646  0.0788
   1   8   4  2.6844  0.0665
   2   8   4  1.1396  0.0527
   3   8   4  1.4528  0.0464
   4   8   4  1.6151  0.0366
   5   8   4  0.7380  0.0763
   6   8   4  0.4385  0.1666
  -7   9   4  0.3141  0.3873
  -6   9   4  1.0685  0.0569
  -5   9   4  0.5911  0.0928
  -4   9   4  0.7603  0.0691
  -3   9   4  1.7689  0.0385
  -2   9   4  1.5282  0.0550
  -1   9   4  0.4082  0.2069
   0   9   4  2.0622  0.0408
   1   9   4  3.5008  0.0608
   2   9   4  0.7207  0.0850
   3   9   4  0.4387  0.1795
   4   9   4  1.2449  0.0741
   5   9   4  1.3585  0.0473
   6   9   4  0.2117  0.4063
  -7  10   4  0.1500  0.3900
  -6  10   4  0.5589  0.1187
  -5  10   4  0.4162  0.1681
  -4  10   4  0.8042  0.2192
  -3  10   4  0.5709  0.0955
  -2  10   4  2.3486  0.0459
  -1  10   4  2.1611  0.0347
   0  10   4  0.5277  0.1068
   1  10   4  0.9132  0.0705
   2  10   4  2.2203  0.0288
   3  10   4  2.2306  0.0302
   4  10   4  0.2838  0.3764
   5  10   4  0.3876  0.2502
   6  10   4  0.5688  0.1213
  -6  11   4  0.3737  0.2745
  -5  11   4  1.9665  0.1188
  -4  11   4  0.4930  0.1216
  -3  11   4  0.8068  0.0710
  -2  11   4  0.5479  0.1333
  -1  11   4  3.4885  0.1073
   0  11   4  1.9938  0.0252
   1  11   4  0.4210  0.1401
   2  11   4  1.2075  0.0648
   3  11   4  1.7630  0.0723
   4  11   4  1.0948  0.0696
   5  11   4  0.1734  0.3993
  -6  12   4  0.3563  0.2637
  -5  12   4  0.3659  0.2144
  -4  12   4  1.9327  0.0577
  -3  12   4  0.9603  0.0643
  -2  12   4  0.6513  0.1345
  -1  12   4  0.2831  0.2594
   0  12   4  2.4522  0.0227
   1  12   4  1.0221  0.0507
   2  12   4  0.4924  0.1256
   3  12   4  0.5630  0.1110
   4  12   4  0.8842  0.0701
   5  12   4  0.1517  0.3800
  -5  13   4  0.3528  0.2599
  -4  13   4  0.4718  0.1755
  -3  13   4  0.5232  0.1253
  -2  13   4  1.5010  0.0429
  -1  13   4  0.3281  0.2759
   0  13   4  0.4684  0.1123
   1  13   4  0.7235  0.0807
   2  13   4  0.8648  0.0686
   3  13   4  0.2231  0.3838
   4  13   4  0.3385  0.2902
  -4  14   4  1.1127  0.0564
  -3  14   4  0.8530  0.0735
  -2  14   4  1.0602  0.0464
  -1  14   4  0.5917  0.1079
   0  14   4  1.1909  0.0771
   1  14   4  0.7736  0.1070
   2  14   4  0.8400  0.0747
   3  14   4  0.3836  0.1880
  -3  15   4  0.6734  0.1288
  -2  15   4  0.2132  0.3473
  -1  15   4  1.7399  0.0396
   0  15   4  0.3986  0.1602
   1  15   4  0.3532  0.2400
   2  15   4  0.2316  0.3593
  -9   0   5  0.4956  0.2054
  -7   0   5  0.9549  0.0872
  -5   0   5  3.3771  0.0419
  -3   0   5  1.3487  0.0499
  -1   0   5 10.6399  0.0396
   1   0   5  0.8461  0.0721
   3   0   5  5.7265  0.0759
   5   0   5  0.4351  0.1932
   7   0   5  0.7519  0.1186
  -8   1   5  0.3788  0.2654
  -7   1   5  0.8247  0.0726
  -6   1   5  0.8314  0.1141
  -5   1   5  2.4683  0.0354
  -4   1   5  2.1050  0.0290
  -3   1   5  6.5138  0.0769
  -2   1   5  3.1821  0.0299
  -1   1   5  4.8708  0.0306
   0   1   5  5.6635  0.0419
   1   1   5  7.8816  0.0593
   2   1   5  2.9623  0.0229
   3   1   5  3.1180  0.0468
   4   1   5  1.7694  0.0871
   5   1   5  1.9305  0.0551
   6   1   5  0.7413  0.0855
   7   1   5  0.4803  0.2633
  -8   2   5  0.5914  0.1748
  -7   2   5  1.1975  0.0493
  -6   2   5  2.7787  0.1106
  -5   2   5  1.8267  0.0356
  -4   2   5  1.0204  0.0516
  -3   2   5  3.9290  0.0368
  -2   2   5 11.7893  0.0613
  -1   2   5  3.0869  0.0242
   0   2   5  1.6717  0.0286
   1   2   5  3.5359  0.0300
   2   2   5  9.1523  0.2464
   3   2   5  0.2325  0.3753
   4   2   5  1.2124  0.0514
   5   2   5  0.2924  0.3526
   6   2   5  1.6149  0.1316
   7   2   5  0.5607  0.2171
  -8   3   5  0.2104  0.4054
  -7   3   5  0.6381  0.1524
  -6   3   5  3.6352  0.0946
  -5   3   5  3.9348  0.0382
  -4   3   5  0.3787  0.2137
  -3   3   5  0.9104  0.0903
  -2   3   5  8.9689  0.0433
  -1   3   5  7.0587  0.0579
   0   3   5  0.3378  0.1526
   1   3   5  3.0554  0.0575
   2   3   5  3.9068  0.1129
   3   3   5  2.5174  0.0513
   4   3   5  0.2075  0.3981
   5   3   5  1.5021  0.0624
   6   3   5  0.2645  0.2555
   7   3   5  0.1699  0.3912
  -8   4   5  1.0633  0.1090
  -7   4   5  1.2134  0.0776
  -6   4   5  0.4134  0.1950
  -5   4   5  1.7498  0.0389
  -4   4   5  4.5734  0.0407
  -3   4   5  3.9430  0.0505
  -2   4   5  0.2428  0.3320
  -1   4   5  2.2368  0.0199
   0   4   5  3.8409  0.1185
   1   4   5  2.9350  0.1053
   2   4   5  0.3634  0.2109
   3   4   5  0.5118  0.1111
   4   4   5  0.3378  0.2496
   5   4   5  0.7488  0.0759
   6   4   5  0.3035  0.2469
   7   4   5  0.3624  0.2743
  -8   5   5  0.2458  0.4101
  -7   5   5  1.2192  0.0519
  -6   5   5  0.7289  0.0778
  -5   5   5  0.2247  0.4116
  -4   5   5  0.8057  0.0726
  -3   5   5  3.2005  0.0309
  -2   5   5  1.6479  0.0623
  -1   5   5  0.3928  0.1316
   0   5   5  2.1984  0.0844
   1   5   5  2.2805  0.0754
   2   5   5  2.1809  0.7906
   3   5   5  1.0935  0.0547
   4   5   5  1.1089  0.1680
   5   5   5  0.2230  0.3418
   6   5   5  0.2708  0.3797
   7   5   5  0.2264  0.3895
  -8   6   5  0.4786  0.1517
  -7   6   5  1.2738  0.0511
  -6   6   5  0.5908  0.1049
  -5   6   5  2.0567  0.3410
  -4   6   5  0.9942  0.0624
  -3   6   5  3.3884  0.0324
  -2   6   5  0.3672  0.2044
  -1   6   5  3.4422  0.0335
   0   6   5  1.9878  0.0610
   1   6   5  2.2105  0.0653
   2   6   5  0.1708  0.3674
   3   6   5  0.8483  0.0767
   4   6   5  0.8470  0.0744
   5   6   5  0.3900  0.1945
   6   6   5  0.3978  0.2440
   7   6   5  0.3165  0.3903
  -8   7   5  0.2629  0.4150
  -7   7   5  0.7702  0.0800
  -6   7   5  2.0307  0.0325
  -5   7   5  0.4714  0.1344
  -4   7   5  1.8887  0.0944
  -3   7   5  3.5252  0.2492
  -2   7   5  3.4087  0.0512
  -1   7   5  0.3406  0.2021
   0   7   5  3.6454  0.0816
   1   7   5  3.8843  0.0556
   2   7   5  0.8892  0.1129
   3   7   5  0.6231  0.1001
   4   7   5  1.5758  0.0739
   5   7   5  0.9565  0.1004
   6   7   5  0.2728  0.4072
  -7   8   5  0.8988  0.0692
  -6   8   5  1.0668  0.0596
  -5   8   5  0.6577  0.0925
  -4   8   5  0.6957  0.0742
  -3   8   5  3.3861  0.1065
  -2   8   5  3.0677  0.0375
  -1   8   5  3.9290  0.0675
   0   8   5  0.9186  0.0638
   1   8   5  3.2718  0.0785
   2   8   5  2.4885  0.0615
   3   8   5  3.1018  0.0378
   4   8   5  0.3644  0.1867
   5   8   5  0.7465  0.0798
   6   8   5  0.6553  0.1005
  -7   9   5  0.1602  0.3296
  -6   9   5  0.2771  0.3135
  -5   9   5  1.1712  0.0513
  -4   9   5  2.4090  0.0310
  -3   9   5  0.3692  0.2058
  -2   9   5  0.8493  0.0746
  -1   9   5  1.7775  0.0384
   0   9   5  4.7356  0.1426
   1   9   5  0.3836  0.2245
   2   9   5  1.4238  0.0390
   3   9   5  0.8971  0.0628
   4   9   5  2.0970  0.0322
   5   9   5  0.1909  0.3983
   6   9   5  0.5431  0.1300
  -7  10   5  0.2346  0.3907
  -6  10   5  0.4367  0.2181
  -5  10   5  0.5155  0.1427
  -4  10   5  1.6047  0.0626
  -3  10   5  0.7661  0.0723
  -2  10   5  1.5577  0.0635
  -1  10   5  1.3638  0.0836
   0  10   5  2.1620  0.0301
   1  10   5  0.6653  0.0807
   2  10   5  1.3792  0.0417
   3  10   5  1.1326  0.0529
   4  10   5  0.8805  0.1416
   5  10   5  0.4085  0.2402
  -6  11   5  0.4601  0.1810
  -5  11   5  0.7634  0.0808
  -4  11   5  0.4742  0.1766
  -3  11   5  1.8539  0.0520
  -2  11   5  0.9057  0.1021
  -1  11   5  1.3797  0.0393
   0  11   5  0.9386  0.0589
   1  11   5  2.3342  0.0292
   2  11   5  0.3192  0.2596
   3  11   5  0.5899  0.1041
   4  11   5  0.6190  0.2028
   5  11   5  0.8299  0.0980
  -5  12   5  0.9074  0.0692
  -4  12   5  1.2384  0.0614
  -3  12   5  0.5776  0.1098
  -2  12   5  1.8489  0.0684
  -1  12   5  1.7208  0.0343
   0  12   5  0.7871  0.0567
   1  12   5  0.5515  0.1801
   2  12   5  1.4356  0.0693
   3  12   5  1.0203  0.0592
   4  12   5  0.3557  0.2480
  -5  13   5  1.2934  0.0484
  -4  13   5  0.6783  0.1023
  -3  13   5  0.8509  0.0718
  -2  13   5  0.3087  0.2631
  -1  13   5  1.7187  0.0371
   0  13   5  0.8233  0.0584
   1  13   5  0.2841  0.3826
   2  13   5  0.2072  0.3886
   3  13   5  0.4578  0.1664
  -4  14   5  0.9557  0.0665
  -3  14   5  0.5648  0.1036
  -2  14   5  0.2349  0.3444
  -1  14   5  0.4474  0.1779
   0  14   5  0.6812  0.0844
   1  14   5  0.3303  0.2717
   2  14   5  0.2098  0.3679
  -2  15   5  0.5568  0.0974
  -1  15   5  0.2508  0.3686
   0  15   5  0.3114  0.2261
   1  15   5  0.2948  0.3098
  -8   0   6  0.7985  0.1105
  -6   0   6  4.4085  0.0602
  -4   0   6  2.4279  0.0398
  -2   0   6 13.9441  0.0642
   0   0   6  1.3917  0.0487
   2   0   6  9.6184  0.0710
   4   0   6  0.7970  0.1169
   6   0   6  1.5144  0.0603
  -8   1   6  0.3760  0.2271
  -7   1   6  0.4692  0.1325
  -6   1   6  1.0967  0.0661
  -5   1   6  4.5824  0.0451
  -4   1   6  2.4605  0.0280
  -3   1   6  4.0617  0.0390
  -2   1   6  1.7405  0.0465
  -1   1   6  7.7903  0.0586
   0   1   6  4.4331  0.0349
   1   1   6  5.5902  0.0898
   2   1   6  0.8218  0.0637
   3   1   6  2.7446  0.0282
   4   1   6  0.9980  0.0651
   5   1   6  1.6274  0.0752
   6   1   6  0.4704  0.1433
   7   1   6  0.2265  0.3896
  -8   2   6  0.4742  0.1503
  -7   2   6  0.2589  0.3864
  -6   2   6  0.4361  0.1421
  -5   2   6  2.1712  0.0339
  -4   2   6  1.3349  0.0439
  -3   2   6  1.0355  0.1042
  -2   2   6  0.2946  0.2731
  -1   2   6  4.3613  0.0497
   0   2   6  0.2238  0.3395
   1   2   6  1.6932  0.1003
   2   2   6  0.4044  0.1936
   3   2   6  1.8979  0.0507
   4   2   6  1.0916  0.1119
   5   2   6  0.4108  0.1938
   6   2   6  0.0733  0.3130
   7   2   6  0.4012  0.2056
  -8   3   6  0.3782  0.2284
  -7   3   6  1.2444  0.0503
  -6   3   6  0.3964  0.2135
  -5   3   6  2.6302  0.1102
  -4   3   6  0.8862  0.0651
  -3   3   6  3.7816  0.0335
  -2   3   6  0.5076  0.1724
  -1   3   6  5.2356  0.1043
   0   3   6  1.4673  0.0639
   1   3   6  2.5964  0.1120
   2   3   6  1.4166  0.0398
   3   3   6  3.1634  0.1006
   4   3   6  0.2668  0.3620
   5   3   6  0.5297  0.1365
   6   3   6  0.6396  0.0986
   7   3   6  0.4603  0.1673
  -8   4   6  0.5042  0.1426
  -7   4   6  0.7739  0.0755
  -6   4   6  1.9496  0.1226
  -5   4   6  1.3987  0.0493
  -4   4   6  1.4708  0.0416
  -3   4   6  1.1493  0.0842
  -2   4   6  4.9201  0.0726
  -1   4   6  0.3160  0.2328
   0   4   6  1.4736  0.0497
   1   4   6  0.3619  0.2233
   2   4   6  3.3382  0.1288
   3   4   6  1.2238  0.0747
   4   4   6  0.4737  0.1634
   5   4   6  0.6669  0.0905
   6   4   6  0.7133  0.0877
   7   4   6  0.3278  0.4517
  -8   5   6  0.4025  0.2541
  -7   5   6  0.7120  0.0990
  -6   5   6  1.8358  0.0346
  -5   5   6  0.9828  0.0540
  -4   5   6  1.2182  0.0517
  -3   5   6  1.1007  0.0507
  -2   5   6  1.5317  0.1023
  -1   5   6  0.5347  0.0853
   0   5   6  2.1277  0.0383
   1   5   6  0.3208  0.2415
   2   5   6  1.0946  0.0543
   3   5   6  0.3925  0.2332
   4   5   6  0.8260  0.0705
   5   5   6  0.2605  0.3835
   6   5   6  0.5264  0.1299
  -8   6   6  0.3198  0.3313
  -7   6   6  1.2229  0.0881
  -6   6   6  1.3256  0.0453
  -5   6   6  0.6760  0.0816
  -4   6   6  0.6130  0.1088
  -3   6   6  3.7484  0.0348
  -2   6   6  2.7289  0.0268
  -1   6   6  3.2130  0.1015
   0   6   6  0.9371  0.0604
   1   6   6  2.7315  0.1067
   2   6   6  1.7909  0.0766
   3   6   6  2.2257  0.0595
   4   6   6  1.1279  0.0504
   5   6   6  0.5347  0.1172
   6   6   6  0.4144  0.2385
  -7   7   6  0.4636  0.1988
  -6   7   6  0.4655  0.1811
  -5   7   6  0.8405  0.0723
  -4   7   6  3.1593  0.0866
  -3   7   6  0.2060  0.3925
  -2   7   6  0.2060  0.3526
  -1   7   6  1.7055  0.0298
   0   7   6  4.7969  0.1370
   1   7   6  0.7476  0.0981
   2   7   6  0.3556  0.2615
   3   7   6  1.3040  0.0425
   4   7   6  1.7341  0.0972
   5   7   6  0.2584  0.3777
   6   7   6  0.1710  0.3939
  -7   8   6  0.4273  0.1808
  -6   8   6  0.7243  0.0834
  -5   8   6  0.6380  0.0988
  -4   8   6  0.8164  0.0670
  -3   8   6  0.9198  0.0692
  -2   8   6  2.4409  0.0263
  -1   8   6  0.9968  0.0491
   0   8   6  1.2694  0.0511
   1   8   6  1.0949  0.0579
   2   8   6  1.6827  0.0368
   3   8   6  0.4704  0.1198
   4   8   6  0.5964  0.1071
   5   8   6  0.4333  0.2199
   6   8   6  0.4146  0.1997
  -7   9   6  0.6867  0.0962
  -6   9   6  0.3802  0.2407
  -5   9   6  1.4996  0.0878
  -4   9   6  1.5682  0.0516
  -3   9   6  2.3534  0.1296
  -2   9   6  0.3494  0.2233
  -1   9   6  2.7198  0.0547
   0   9   6  2.2661  0.0287
   1   9   6  2.6039  0.0260
   2   9   6  0.3291  0.2450
   3   9   6  1.2156  0.0495
   4   9   6  0.8957  0.1065
   5   9   6  0.8201  0.0776
  -6  10   6  1.1104  0.0822
  -5  10   6  1.2354  0.0499
  -4  10   6  0.8650  0.0682
  -3  10   6  2.4876  0.0579
  -2  10   6  2.6227  0.0833
  -1  10   6  2.7200  0.0729
   0  10   6  0.4684  0.1561
   1  10   6  2.1937  0.0447
   2  10   6  1.8929  0.0346
   3  10   6  1.6511  0.0691
   4  10   6  0.2582  0.4077
   5  10   6  0.6131  0.1327
  -6  11   6  0.7128  0.2436
  -5  11   6  0.9808  0.1509
  -4  11   6  1.8900  0.0341
  -3  11   6  0.5460  0.1105
  -2  11   6  0.3358  0.2402
  -1  11   6  0.9341  0.0477
   0  11   6  2.5762  0.0632
   1  11   6  0.4064  0.1626
   2  11   6  0.4226  0.2075
   3  11   6  0.3417  0.2874
   4  11   6  1.0216  0.1212
  -5  12   6  0.3803  0.2106
  -4  12   6  0.4977  0.1407
  -3  12   6  0.5748  0.1106
  -2  12   6  0.8011  0.0596
  -1  12   6  0.3367  0.2491
   0  12   6  0.3771  0.2501
   1  12   6  0.2755  0.3113
   2  12   6  0.4591  0.1970
   3  12   6  0.4847  0.1664
  -4  13   6  0.6433  0.1175
  -3  13   6  0.4069  0.1617
  -2  13   6  0.3385  0.2442
  -1  13   6  0.6381  0.1001
   0  13   6  0.5790  0.1132
   1  13   6  0.4473  0.1801
   2  13   6  0.5056  0.1294
   3  13   6  0.3535  0.2578
  -3  14   6  0.4015  0.2219
  -2  14   6  0.3715  0.1819
  -1  14   6  0.3873  0.2181
   0  14   6  0.1709  0.3709
   1  14   6  0.5989  0.2077
  -7   0   7  0.7906  0.1181
  -5   0   7  0.8699  0.1071
  -3   0   7  3.2117  0.0444
  -1   0   7  1.4593  0.0524
   1   0   7  2.3897  0.0397
   3   0   7  0.5429  0.1799
   5   0   7  0.3288  0.3290
  -8   1   7  0.3621  0.2740
  -7   1   7  0.7206  0.0821
  -6   1   7  0.5308  0.1167
  -5   1   7  4.3848  0.0393
  -4   1   7  1.7715  0.0366
  -3   1   7  2.2804  0.0295
  -2   1   7  0.7268  0.0699
  -1   1   7  6.4886  0.2610
   0   1   7  2.5331  0.0778
   1   1   7  1.9709  0.0324
   2   1   7  0.6052  0.0958
   3   1   7  2.4363  0.0327
   4   1   7  0.3731  0.2350
   5   1   7  0.4615  0.1408
   6   1   7  0.4149  0.1861
  -8   2   7  0.9838  0.0639
  -7   2   7  0.2370  0.3954
  -6   2   7  3.3860  0.0589
  -5   2   7  0.3384  0.2460
  -4   2   7  2.8582  0.0287
  -3   2   7  0.2654  0.3657
  -2   2   7  7.6601  0.0512
  -1   2   7  2.0302  0.1038
   0   2   7  2.0716  0.0960
   1   2   7  1.0484  0.0679
   2   2   7  4.4590  0.1847
   3   2   7  1.7031  0.0401
   4   2   7  0.3515  0.2554
   5   2   7  0.5041  0.1244
   6   2   7  0.6987  0.0920
  -8   3   7  0.2258  0.3891
  -7   3   7  0.3234  0.2694
  -6   3   7  0.2192  0.3780
  -5   3   7  2.3329  0.0394
  -4   3   7  0.3258  0.2902
  -3   3   7  2.0640  0.0314
  -2   3   7  2.0514  0.0411
  -1   3   7  2.4592  0.1146
   0   3   7  0.7254  0.0740
   1   3   7  3.1395  0.1077
   2   3   7  2.5792  0.0437
   3   3   7  0.2761  0.2573
   4   3   7  0.3966  0.1981
   5   3   7  0.9835  0.0851
   6   3   7  0.5960  0.1120
  -8   4   7  0.2082  0.3944
  -7   4   7  0.3177  0.3209
  -6   4   7  0.5503  0.1108
  -5   4   7  0.5503  0.1030
  -4   4   7  1.1695  0.0548
  -3   4   7  0.9367  0.0595
  -2   4   7  0.4065  0.1538
  -1   4   7  1.7169  0.1433
   0   4   7  3.5242  0.1907
   1   4   7  0.1949  0.2982
   2   4   7  0.3704  0.2317
   3   4   7  1.1945  0.0495
   4   4   7  1.9936  0.0334
   5   4   7  0.4443  0.1540
   6   4   7  0.2000  0.3229
  -8   5   7  0.4649  0.2078
  -7   5   7  0.4967  0.1405
  -6   5   7  0.4207  0.1606
  -5   5   7  1.8049  0.0332
  -4   5   7  1.5726  0.0442
  -3   5   7  0.6648  0.0925
  -2   5   7  1.6038  0.0591
  -1   5   7  3.4534  0.1075
   0   5   7  1.6263  0.0476
   1   5   7  1.6322  0.1371
   2   5   7  1.5023  0.1493
   3   5   7  2.0818  0.0469
   4   5   7  0.6488  0.0861
   5   5   7  0.6269  0.1009
   6   5   7  0.3030  0.4019
  -7   6   7  0.4065  0.1946
  -6   6   7  0.3242  0.2786
  -5   6   7  0.4458  0.1305
  -4   6   7  0.5973  0.1321
  -3   6   7  1.3180  0.1113
  -2   6   7  0.5212  0.1025
  -1   6   7  2.0286  0.0354
   0   6   7  1.1292  0.0560
   1   6   7  1.7765  0.0929
   2   6   7  0.4238  0.1779
   3   6   7  1.4577  0.0467
   4   6   7  0.5693  0.1045
   5   6   7  0.6847  0.1219
   6   6   7  0.5108  0.1653
  -7   7   7  0.1944  0.4057
  -6   7   7  0.2070  0.3988
  -5   7   7  1.4735  0.0404
  -4   7   7  2.1814  0.0301
  -3   7   7  0.8424  0.1140
  -2   7   7  1.0432  0.0641
  -1   7   7  2.5149  0.0522
   0   7   7  2.9258  0.0847
   1   7   7  0.4961  0.1528
   2   7   7  1.6843  0.0580
   3   7   7  0.9815  0.0778
   4   7   7  0.8589  0.0680
   5   7   7  0.2979  0.3257
  -7   8   7  1.3622  0.0484
  -6   8   7  1.1476  0.0548
  -5   8   7  1.2553  0.0470
  -4   8   7  1.3651  0.0421
  -3   8   7  3.3866  0.1242
  -2   8   7  2.0106  0.0250
  -1   8   7  2.8198  0.0416
   0   8   7  1.6451  0.0735
   1   8   7  2.1892  0.0760
   2   8   7  1.2386  0.0458
   3   8   7  1.6255  0.0696
   4   8   7  0.6186  0.1028
   5   8   7  0.3959  0.2556
  -6   9   7  0.9504  0.0953
  -5   9   7  0.3799  0.2153
  -4   9   7  2.5506  0.1345
  -3   9   7  0.4492  0.1375
  -2   9   7  1.3359  0.0473
  -1   9   7  0.6825  0.0678
   0   9   7  2.8661  0.0272
   1   9   7  0.3375  0.2364
   2   9   7  0.3594  0.2503
   3   9   7  0.4028  0.1806
   4   9   7  0.8249  0.0760
   5   9   7  0.2478  0.2947
  -6  10   7  0.7238  0.0906
  -5  10   7  0.3477  0.2536
  -4  10   7  0.1680  0.3860
  -3  10   7  0.8742  0.0762
  -2  10   7  1.3413  0.0659
  -1  10   7  0.4514  0.1505
   0  10   7  0.1964  0.3785
   1  10   7  0.5898  0.1992
   2  10   7  0.5514  0.1141
   3  10   7  0.4504  0.1637
   4  10   7  0.2139  0.4122
  -5  11   7  1.2380  0.0916
  -4  11   7  0.9334  0.0656
  -3  11   7  0.5996  0.1931
  -2  11   7  0.5630  0.1056
  -1  11   7  1.4331  0.0356
   0  11   7  0.9704  0.0585
   1  11   7  0.6062  0.1018
   2  11   7  0.6180  0.1035
   3  11   7  0.4344  0.1589
  -4  12   7  0.4223  0.2004
  -3  12   7  1.3459  0.0450
  -2  12   7  0.9681  0.0608
  -1  12   7  0.3088  0.2592
   0  12   7  0.4992  0.1266
   1  12   7  1.1159  0.0545
   2  12   7  0.6040  0.1106
   3  12   7  0.1241  0.3099
  -3  13   7  0.5451  0.1586
  -2  13   7  0.4710  0.1260
  -1  13   7  0.3254  0.2466
   0  13   7  0.2143  0.3926
   1  13   7  0.9077  0.0833
   2  13   7  0.1912  0.3727
  -1  14   7  0.3108  0.2651
   0  14   7  0.5542  0.1074
  -8   0   8  1.1415  0.0878
  -6   0   8  2.7637  0.0372
  -4   0   8  2.7757  0.0424
  -2   0   8  4.9273  0.0421
   0   0   8  1.2340  0.0668
   2   0   8  2.1929  0.0506
   4   0   8  0.3979  0.2378
   6   0   8  0.2145  0.4915
  -8   1   8  0.2303  0.4076
  -7   1   8  0.3034  0.3224
  -6   1   8  0.9046  0.0683
  -5   1   8  2.7670  0.0691
  -4   1   8  0.2762  0.3751
  -3   1   8  1.7868  0.0374
  -2   1   8  2.2604  0.0311
  -1   1   8  2.8007  0.0271
   0   1   8  0.9435  0.0632
   1   1   8  2.0750  0.0896
   2   1   8  1.2310  0.0520
   3   1   8  0.3183  0.3003
   4   1   8  0.6887  0.0820
   5   1   8  0.5948  0.1129
   6   1   8  0.2133  0.4092
  -8   2   8  0.0759  0.3244
  -7   2   8  0.3090  0.2831
  -6   2   8  0.4472  0.1664
  -5   2   8  0.9830  0.0724
  -4   2   8  1.4048  0.0499
  -3   2   8  0.6924  0.0893
  -2   2   8  1.1432  0.0634
  -1   2   8  1.6154  0.0637
   0   2   8  2.6701  0.1719
   1   2   8  0.1190  0.3664
   2   2   8  0.7358  0.0924
   3   2   8  0.9166  0.0605
   4   2   8  1.2354  0.0497
   5   2   8  0.3458  0.2860
   6   2   8  0.4719  0.1560
  -8   3   8  0.3422  0.3244
  -7   3   8  0.3896  0.2517
  -6   3   8  0.3077  0.2745
  -5   3   8  2.3023  0.0441
  -4   3   8  0.3295  0.2486
  -3   3   8  1.4931  0.0701
  -2   3   8  1.3145  0.0561
  -1   3   8  2.9512  0.0625
   0   3   8  0.5269  0.1690
   1   3   8  1.7231  0.1380
   2   3   8  1.3933  0.0397
   3   3   8  1.3249  0.0809
   4   3   8  0.3275  0.2760
   5   3   8  0.4481  0.1622
  -7   4   8  0.2604  0.4025
  -6   4   8  1.0292  0.0552
  -5   4   8  1.8871  0.0333
  -4   4   8  1.2947  0.0442
  -3   4   8  0.5226  0.1603
  -2   4   8  1.5854  0.0330
  -1   4   8  4.3730  0.2928
   0   4   8  1.0020  0.2404
   1   4   8  1.3567  0.0857
   2   4   8  0.7772  0.0683
   3   4   8  2.2986  0.0379
   4   4   8  0.1704  0.3126
   5   4   8  0.4219  0.2320
  -7   5   8  0.6292  0.2208
  -6   5   8  0.7381  0.0811
  -5   5   8  0.5610  0.2275
  -4   5   8  2.6924  0.0436
  -3   5   8  1.4870  0.0515
  -2   5   8  2.9637  0.0460
  -1   5   8  1.5327  0.5681
   0   5   8  3.2792  0.1609
   1   5   8  1.8713  0.0318
   2   5   8  2.6493  0.0477
   3   5   8  0.4432  0.1960
   4   5   8  0.8429  0.0703
   5   5   8  0.6040  0.1106
  -7   6   8  1.0342  0.0608
  -6   6   8  0.4346  0.2121
  -5   6   8  1.2634  0.0486
  -4   6   8  2.1005  0.0308
  -3   6   8  2.1550  0.0883
  -2   6   8  0.4386  0.1200
  -1   6   8  2.6079  0.0426
   0   6   8  3.0744  0.0591
   1   6   8  0.9801  0.0540
   2   6   8  0.4189  0.1822
   3   6   8  1.3198  0.0897
   4   6   8  1.3372  0.0498
   5   6   8  0.4262  0.2343
  -7   7   8  0.4449  0.2184
  -6   7   8  1.1140  0.0547
  -5   7   8  0.4967  0.1309
  -4   7   8  1.3415  0.0473
  -3   7   8  1.2706  0.0540
  -2   7   8  1.7085  0.0606
  -1   7   8  0.9806  0.0439
   0   7   8  1.1090  0.0628
   1   7   8  1.2554  0.0465
   2   7   8  0.6778  0.0816
   3   7   8  0.8432  0.1229
   4   7   8  0.2897  0.3900
   5   7   8  0.5338  0.1317
  -6   8   8  0.5491  0.1276
  -5   8   8  1.0241  0.0580
  -4   8   8  0.6053  0.0975
  -3   8   8  0.5768  0.1337
  -2   8   8  0.7940  0.0550
  -1   8   8  1.6321  0.0837
   0   8   8  0.1684  0.3744
   1   8   8  0.4257  0.1555
   2   8   8  0.3631  0.2596
   3   8   8  0.7373  0.1246
   4   8   8  0.1704  0.3925
  -6   9   8  0.3915  0.1938
  -5   9   8  1.2810  0.0702
  -4   9   8  1.5364  0.0422
  -3   9   8  0.2613  0.3849
  -2   9   8  0.3228  0.2546
  -1   9   8  1.1860  0.0411
   0   9   8  1.3860  0.0434
   1   9   8  0.3153  0.2634
   2   9   8  0.4919  0.1592
   3   9   8  0.2191  0.3725
   4   9   8  0.3197  0.3312
  -5  10   8  0.2308  0.2745
  -4  10   8  0.4049  0.2169
  -3  10   8  1.6939  0.1135
  -2  10   8  0.9318  0.0505
  -1  10   8  0.4781  0.1183
   0  10   8  0.2869  0.3134
   1  10   8  0.8339  0.1151
   2  10   8  0.5352  0.1282
   3  10   8  0.2904  0.3828
  -5  11   8  0.2146  0.4624
  -4  11   8  0.6114  0.0943
  -3  11   8  0.8255  0.1211
  -2  11   8  0.4189  0.1609
  -1  11   8  0.1406  0.2577
   0  11   8  0.4675  0.1553
   1  11   8  1.1092  0.0665
   2  11   8  0.1496  0.3673
  -4  12   8  0.5956  0.1054
  -3  12   8  0.1949  0.3834
  -2  12   8  0.5261  0.1628
  -1  12   8  0.4316  0.1425
   0  12   8  0.8207  0.0774
   1  12   8  0.3865  0.2286
   2  12   8  0.5257  0.1623
  -2  13   8  0.9947  0.0819
  -1  13   8  0.2972  0.2537
   0  13   8  0.1955  0.3845
  -7   0   9  0.3472  0.3474
  -5   0   9  1.5092  0.0549
  -3   0   9  0.5419  0.1583
  -1   0   9  1.7090  0.0556
   1   0   9  1.4780  0.0538
   3   0   9  0.6505  0.1400
   5   0   9  0.6297  0.1496
  -7   1   9  0.1180  0.3108
  -6   1   9  0.4680  0.1425
  -5   1   9  1.3368  0.0478
  -4   1   9  0.4280  0.1435
  -3   1   9  0.3650  0.1841
  -2   1   9  0.4658  0.1173
  -1   1   9  0.7589  0.0861
   0   1   9  0.8940  0.1497
   1   1   9  0.2810  0.3538
   2   1   9  0.8716  0.1324
   3   1   9  0.2939  0.2694
   4   1   9  0.6589  0.0946
   5   1   9  0.3327  0.2738
  -7   2   9  0.2461  0.3999
  -6   2   9  0.9694  0.0606
  -5   2   9  1.5519  0.0383
  -4   2   9  0.8471  0.0660
  -3   2   9  0.4824  0.1952
  -2   2   9  1.2324  0.0372
  -1   2   9  2.8803  0.1073
   0   2   9  0.4448  0.1261
   1   2   9  0.2648  0.3582
   2   2   9  1.2466  0.4131
   3   2   9  1.2678  0.0559
   4   2   9  0.5176  0.1321
   5   2   9  0.4644  0.1696
  -7   3   9  0.5246  0.1846
  -6   3   9  0.9100  0.0657
  -5   3   9  0.8192  0.1316
  -4   3   9  2.7636  0.0277
  -3   3   9  2.1600  0.0291
  -2   3   9  2.2845  0.0267
  -1   3   9  0.4396  0.1288
   0   3   9  3.0852  0.1016
   1   3   9  2.0450  0.0697
   2   3   9  1.4549  0.1945
   3   3   9  0.5556  0.1093
   4   3   9  0.9696  0.0626
   5   3   9  0.5697  0.1215
  -7   4   9  0.6201  0.1083
  -6   4   9  0.8947  0.1789
  -5   4   9  1.3980  0.0993
  -4   4   9  1.8149  0.0349
  -3   4   9  1.1780  0.0457
  -2   4   9  2.0642  0.0224
  -1   4   9  2.1244  0.0777
   0   4   9  2.6204  0.0702
   1   4   9  0.8043  0.0698
   2   4   9  0.9273  0.0780
   3   4   9  0.9665  0.0627
   4   4   9  0.9325  0.0661
   5   4   9  0.2817  0.3949
  -7   5   9  0.5821  0.1083
  -6   5   9  0.7942  0.1124
  -5   5   9  0.3830  0.2336
  -4   5   9  0.3712  0.1914
  -3   5   9  1.9377  0.0467
  -2   5   9  1.4205  0.0263
  -1   5   9  0.4975  0.1401
   0   5   9  0.1861  0.3562
   1   5   9  1.7696  0.0289
   2   5   9  0.7511  0.0606
   3   5   9  0.5718  0.1100
   4   5   9  0.3324  0.2905
  -6   6   9  0.3354  0.2311
  -5   6   9  2.0150  0.0358
  -4   6   9  0.2456  0.3886
  -3   6   9  0.4447  0.1354
  -2   6   9  0.3132  0.2305
  -1   6   9  3.1741  0.0441
   0   6   9  0.1285  0.2977
   1   6   9  0.4637  0.1366
   2   6   9  0.4436  0.1540
   3   6   9  1.3499  0.0494
   4   6   9  0.3529  0.2818
  -6   7   9  0.2139  0.3789
  -5   7   9  0.1219  0.3238
  -4   7   9  2.2386  0.0379
  -3   7   9  1.0581  0.0579
  -2   7   9  1.3200  0.0935
  -1   7   9  0.0693  0.2961
   0   7   9  2.0067  0.0388
   1   7   9  0.8223  0.0986
   2   7   9  1.2464  0.0645
   3   7   9  0.3590  0.2717
   4   7   9  0.3274  0.3307
  -6   8   9  0.3980  0.2243
  -5   8   9  0.5208  0.1137
  -4   8   9  0.7172  0.1143
  -3   8   9  1.1057  0.1204
  -2   8   9  0.4312  0.1784
  -1   8   9  1.0710  0.1025
   0   8   9  0.4604  0.1402
   1   8   9  0.1717  0.3150
   2   8   9  0.4360  0.2110
   3   8   9  0.6865  0.1173
  -5   9   9  0.2656  0.3719
  -4   9   9  0.5159  0.1234
  -3   9   9  0.3823  0.2595
  -2   9   9  0.5289  0.1900
  -1   9   9  0.1195  0.3174
   0   9   9  0.1729  0.3173
   1   9   9  0.3684  0.2359
   2   9   9  0.3027  0.3107
   3   9   9  0.4774  0.1409
  -4  10   9  0.4271  0.1842
  -3  10   9  0.4019  0.1524
  -2  10   9  0.6135  0.1874
  -1  10   9  0.2065  0.2844
   0  10   9  0.2108  0.3735
   1  10   9  0.5083  0.1186
   2  10   9  0.6614  0.1001
  -3  11   9  0.0909  0.2869
  -2  11   9  0.6844  0.1491
  -1  11   9  0.4711  0.1267
   0  11   9  0.4362  0.1469
   1  11   9  0.3178  0.2726
  -2  12   9  0.5386  0.1132
  -1  12   9  0.6389  0.0776
  -6   0  10  0.4726  0.2118
  -4   0  10  0.7515  0.1040
  -2   0  10  0.3186  0.2504
   0   0  10  1.9186  0.0453
   2   0  10  0.0000  0.3299
   4   0  10  0.8980  0.0998
  -7   1  10  0.4430  0.1922
  -6   1  10  0.1938  0.3897
  -5   1  10  0.3136  0.2798
  -4   1  10  1.7924  0.0729
  -3   1  10  1.2674  0.0695
  -2   1  10  0.3337  0.2200
  -1   1  10  0.8096  0.0695
   0   1  10  1.9326  0.0319
   1   1  10  1.0822  0.0712
   2   1  10  0.3882  0.1858
   3   1  10  0.8313  0.0732
   4   1  10  0.7434  0.0871
  -7   2  10  0.5206  0.1564
  -6   2  10  0.8141  0.0910
  -5   2  10  1.0277  0.0567
  -4   2  10  0.6105  0.0946
  -3   2  10  1.6201  0.0355
  -2   2  10  1.3426  0.0316
  -1   2  10  1.0663  0.0844
   0   2  10  0.9653  0.0596
   1   2  10  1.6503  0.0398
   2   2  10  0.5217  0.1587
   3   2  10  0.5438  0.2093
   4   2  10  0.6651  0.2434
  -6   3  10  0.3707  0.2773
  -5   3  10  0.3466  0.2800
  -4   3  10  0.1410  0.3664
  -3   3  10  0.9198  0.0577
  -2   3  10  1.1564  0.0405
  -1   3  10  0.6676  0.0837
   0   3  10  0.4004  0.1608
   1   3  10  0.5931  0.1415
   2   3  10  0.7731  0.0760
   3   3  10  0.2045  0.3873
   4   3  10  0.2474  0.4128
  -6   4  10  0.3545  0.2624
  -5   4  10  1.8675  0.0354
  -4   4  10  0.2627  0.3921
  -3   4  10  0.7947  0.1056
  -2   4  10  0.2660  0.2563
  -1   4  10  2.5246  0.0356
   0   4  10  0.5095  0.1149
   1   4  10  0.3209  0.2753
   2   4  10  0.1445  0.3756
   3   4  10  0.8152  0.0769
   4   4  10  0.2779  0.4093
  -6   5  10  0.4741  0.1554
  -5   5  10  0.4238  0.1797
  -4   5  10  2.5094  0.0937
  -3   5  10  1.3825  0.0449
  -2   5  10  1.1546  0.0412
  -1   5  10  0.3108  0.2589
   0   5  10  2.0565  0.0376
   1   5  10  1.0510  0.0553
   2   5  10  0.8367  0.0592
   3   5  10  0.2251  0.3872
  -6   6  10  0.7934  0.0821
  -5   6  10  0.7950  0.0797
  -4   6  10  0.5454  0.1195
  -3   6  10  0.6011  0.0832
  -2   6  10  1.3544  0.0561
  -1   6  10  1.2259  0.0510
   0   6  10  0.5905  0.1570
   1   6  10  0.5158  0.1661
   2   6  10  0.5641  0.1171
   3   6  10  0.4547  0.1646
  -5   7  10  0.3199  0.2595
  -4   7  10  0.3594  0.2783
  -3   7  10  0.4990  0.1313
  -2   7  10  0.2338  0.3447
  -1   7  10  0.2559  0.3741
   0   7  10  0.4297  0.1736
   1   7  10  0.2985  0.3857
   2   7  10  0.4661  0.1554
   3   7  10  0.4545  0.1830
  -5   8  10  0.7711  0.0844
  -4   8  10  0.2131  0.3862
  -3   8  10  0.6808  0.0766
  -2   8  10  0.6846  0.0751
  -1   8  10  0.6941  0.0899
   0   8  10  0.6358  0.2212
   1   8  10  0.6266  0.0967
   2   8  10  0.6371  0.1046
  -4   9  10  0.4283  0.1847
  -3   9  10  0.4187  0.1486
  -2   9  10  0.2942  0.2885
  -1   9  10  1.0044  0.0616
   0   9  10  0.2640  0.3696
   1   9  10  0.0751  0.3035
  -3  10  10  0.3729  0.1783
  -2  10  10  0.3572  0.2356
  -1  10  10  0.4192  0.1571
   0  10  10  0.8212  0.0785
  -5   0  11  0.2733  0.4462
  -3   0  11  1.9208  0.0516
  -1   0  11  0.4032  0.2410
   1   0  11  1.8031  0.0508
   3   0  11  0.2139  0.4613
  -6   1  11  0.4960  0.1240
  -5   1  11  0.5827  0.1146
  -4   1  11  0.4085  0.1837
  -3   1  11  0.7643  0.0767
  -2   1  11  1.1423  0.0398
  -1   1  11  1.2229  0.0511
   0   1  11  0.7733  0.1454
   1   1  11  0.6871  0.0890
   2   1  11  0.6972  0.0913
   3   1  11  0.6652  0.1706
  -6   2  11  0.4694  0.1849
  -5   2  11  0.7817  0.0811
  -4   2  11  1.3883  0.0553
  -3   2  11  0.4373  0.1964
  -2   2  11  0.3138  0.2532
  -1   2  11  0.8684  0.0656
   0   2  11  1.8484  0.0613
   1   2  11  0.5116  0.2089
   2   2  11  0.3759  0.2678
   3   2  11  0.0758  0.3240
  -6   3  11  0.3943  0.2241
  -5   3  11  0.2466  0.3815
  -4   3  11  1.6858  0.0395
  -3   3  11  1.4019  0.0362
  -2   3  11  0.2727  0.2515
  -1   3  11  0.4107  0.1742
   0   3  11  1.1808  0.0517
   1   3  11  0.8703  0.0696
   2   3  11  0.3153  0.3011
   3   3  11  0.4380  0.1752
  -5   4  11  0.5377  0.1681
  -4   4  11  0.3616  0.2203
  -3   4  11  0.8616  0.0571
  -2   4  11  0.9945  0.0480
  -1   4  11  0.5118  0.1262
   0   4  11  0.2718  0.2626
   1   4  11  0.6442  0.2103
   2   4  11  0.3420  0.2612
   3   4  11  0.1239  0.3594
  -5   5  11  0.3903  0.1956
  -4   5  11  0.3497  0.2576
  -3   5  11  0.3360  0.2099
  -2   5  11  0.2882  0.2863
  -1   5  11  0.4841  0.1598
   0   5  11  0.3402  0.2477
   1   5  11  0.2743  0.3401
   2   5  11  0.3269  0.2484
  -5   6  11  0.6640  0.1006
  -4   6  11  0.1838  0.3028
  -3   6  11  0.7523  0.0689
  -2   6  11  0.5099  0.1174
  -1   6  11  0.6779  0.0942
   0   6  11  0.5209  0.1720
   1   6  11  0.1231  0.3570
   2   6  11  0.4331  0.1956
  -4   7  11  0.8076  0.0799
  -3   7  11  0.3481  0.2374
  -2   7  11  0.5097  0.0971
  -1   7  11  0.9385  0.1021
   0   7  11  0.5150  0.1161
   1   7  11  0.3111  0.2716
  -3   8  11  0.5563  0.0919
  -2   8  11  0.2460  0.3296
  -1   8  11  0.8106  0.0737
   0   8  11  0.7041  0.0863
  -1   9  11  0.4359  0.2230
  -4   0  12  1.7344  0.0564
  -2   0  12  0.4387  0.1989
   0   0  12  1.8230  0.0528
   2   0  12  0.4292  0.2152
  -5   1  12  0.4723  0.1327
  -4   1  12  0.3899  0.1931
  -3   1  12  1.2298  0.0374
  -2   1  12  0.8125  0.0766
  -1   1  12  0.8523  0.0728
   0   1  12  0.4095  0.2037
   1   1  12  0.7405  0.0874
   2   1  12  0.4848  0.1935
  -4   2  12  0.1864  0.3815
  -3   2  12  1.0203  0.0496
  -2   2  12  0.3766  0.2322
  -1   2  12  0.3840  0.2234
   0   2  12  0.2125  0.3850
   1   2  12  0.6581  0.0930
  -4   3  12  0.2480  0.3837
  -3   3  12  0.7540  0.0695
  -2   3  12  0.6260  0.1017
  -1   3  12  0.4448  0.1430
   0   3  12  0.4396  0.1865
   1   3  12  0.6672  0.0919
  -4   4  12  0.6788  0.0903
  -3   4  12  0.2357  0.3311
  -2   4  12  0.3577  0.2271
  -1   4  12  0.3655  0.2072
   0   4  12  0.5589  0.1225
   1   4  12  0.3397  0.2547
  -3   5  12  0.3663  0.1585
  -2   5  12  0.3090  0.2447
  -1   5  12  0.2939  0.3089
   0   5  12  0.3319  0.2470
  -3   6  12  0.4226  0.1880
  -2   6  12  0.2350  0.2675
  -1   6  12  0.5628  0.1234
   0   6  12  0.2663  0.3727
  -1   0  13  0.5678  0.1474
  -2   1  13  0.4725  0.1562
  -1   1  13  0.2138  0.3845
;
_shelx_hkl_checksum                97484
_olex2_submission_special_instructions  'No special instructions were received'
